300
750
525
525
523
523
522
521
519
512
510
509
508
507
505
503
500
499
498
498
497
497
497
495
495
494
491
491
490
488
483
483
482
479
478
477
477
476
475
475
473
472
472
471
470
465
463
463
455
455
454
454
453
450
446
441
440
439
439
439
439
439
433
431
431
429
428
424
424
424
421
421
420
419
419
418
418
414
409
407
407
406
406
406
405
405
403
402
402
401
394
393
392
391
390
388
388
387
386
386
385
382
382
380
379
378
377
375
375
371
370
369
368
368
367
365
365
361
360
359
358
357
357
356
356
356
355
354
352
350
347
347
345
344
343
342
341
339
335
334
332
331
330
329
327
326
325
324
323
323
323
322
319
318
317
312
311
311
310
308
308
307
306
306
305
305
305
301
299
298
297
290
290
289
289
289
287
283
282
279
275
273
273
272
270
269
269
269
269
264
264
263
263
261
259
259
259
258
255
253
253
251
246
245
244
244
243
243
242
240
236
236
236
234
230
226
226
222
219
219
217
216
214
213
213
212
210
203
202
194
193
192
192
191
191
190
190
187
186
184
184
182
182
182
181
180
179
179
178
177
175
170
169
164
154
151
151
146
140
140
138
137
135
135
132
132
132
132
131
126
124
123
123
119
117
117
115
114
114
113
113
111
105
104
103
102
101
101
100
99
97
96
92
91
91
89
84
82
82
80
80
76
